% Auto-generated by scripts/generate_dzn.py
% problem_type   = polyominoes
% instance       = polyominoes_23
% source_json    = instances_json/0_low_blowup/polyominoes_23.json
% blowup         = 0.7
% representation = NFA

mode = 1;

size = 4;
tiles = 6;
n_expressions = 6;
Q = 58;
S = 7;
q0 = [1, 1, 1, 1, 1, 1];
F = [{8}, {2}, {8}, {18}, {13}, {2}];
d_dfa = array3d(1..6, 1..58, 1..7, [
  % k = 1
    0, 0, 0, 0, 0, 0, 0,
    0, 0, 0, 0, 0, 0, 0,
    0, 0, 0, 0, 0, 0, 0,
    0, 0, 0, 0, 0, 0, 0,
    0, 0, 0, 0, 0, 0, 0,
    0, 0, 0, 0, 0, 0, 0,
    0, 0, 0, 0, 0, 0, 0,
    0, 0, 0, 0, 0, 0, 0,
    0, 0, 0, 0, 0, 0, 0,
    0, 0, 0, 0, 0, 0, 0,
    0, 0, 0, 0, 0, 0, 0,
    0, 0, 0, 0, 0, 0, 0,
    0, 0, 0, 0, 0, 0, 0,
    0, 0, 0, 0, 0, 0, 0,
    0, 0, 0, 0, 0, 0, 0,
    0, 0, 0, 0, 0, 0, 0,
    0, 0, 0, 0, 0, 0, 0,
    0, 0, 0, 0, 0, 0, 0,
    0, 0, 0, 0, 0, 0, 0,
    0, 0, 0, 0, 0, 0, 0,
    0, 0, 0, 0, 0, 0, 0,
    0, 0, 0, 0, 0, 0, 0,
    0, 0, 0, 0, 0, 0, 0,
    0, 0, 0, 0, 0, 0, 0,
    0, 0, 0, 0, 0, 0, 0,
    0, 0, 0, 0, 0, 0, 0,
    0, 0, 0, 0, 0, 0, 0,
    0, 0, 0, 0, 0, 0, 0,
    0, 0, 0, 0, 0, 0, 0,
    0, 0, 0, 0, 0, 0, 0,
    0, 0, 0, 0, 0, 0, 0,
    0, 0, 0, 0, 0, 0, 0,
    0, 0, 0, 0, 0, 0, 0,
    0, 0, 0, 0, 0, 0, 0,
    0, 0, 0, 0, 0, 0, 0,
    0, 0, 0, 0, 0, 0, 0,
    0, 0, 0, 0, 0, 0, 0,
    0, 0, 0, 0, 0, 0, 0,
    0, 0, 0, 0, 0, 0, 0,
    0, 0, 0, 0, 0, 0, 0,
    0, 0, 0, 0, 0, 0, 0,
    0, 0, 0, 0, 0, 0, 0,
    0, 0, 0, 0, 0, 0, 0,
    0, 0, 0, 0, 0, 0, 0,
    0, 0, 0, 0, 0, 0, 0,
    0, 0, 0, 0, 0, 0, 0,
    0, 0, 0, 0, 0, 0, 0,
    0, 0, 0, 0, 0, 0, 0,
    0, 0, 0, 0, 0, 0, 0,
    0, 0, 0, 0, 0, 0, 0,
    0, 0, 0, 0, 0, 0, 0,
    0, 0, 0, 0, 0, 0, 0,
    0, 0, 0, 0, 0, 0, 0,
    0, 0, 0, 0, 0, 0, 0,
    0, 0, 0, 0, 0, 0, 0,
    0, 0, 0, 0, 0, 0, 0,
    0, 0, 0, 0, 0, 0, 0,
    0, 0, 0, 0, 0, 0, 0,

  % k = 2
    0, 0, 0, 0, 0, 0, 0,
    0, 0, 0, 0, 0, 0, 0,
    0, 0, 0, 0, 0, 0, 0,
    0, 0, 0, 0, 0, 0, 0,
    0, 0, 0, 0, 0, 0, 0,
    0, 0, 0, 0, 0, 0, 0,
    0, 0, 0, 0, 0, 0, 0,
    0, 0, 0, 0, 0, 0, 0,
    0, 0, 0, 0, 0, 0, 0,
    0, 0, 0, 0, 0, 0, 0,
    0, 0, 0, 0, 0, 0, 0,
    0, 0, 0, 0, 0, 0, 0,
    0, 0, 0, 0, 0, 0, 0,
    0, 0, 0, 0, 0, 0, 0,
    0, 0, 0, 0, 0, 0, 0,
    0, 0, 0, 0, 0, 0, 0,
    0, 0, 0, 0, 0, 0, 0,
    0, 0, 0, 0, 0, 0, 0,
    0, 0, 0, 0, 0, 0, 0,
    0, 0, 0, 0, 0, 0, 0,
    0, 0, 0, 0, 0, 0, 0,
    0, 0, 0, 0, 0, 0, 0,
    0, 0, 0, 0, 0, 0, 0,
    0, 0, 0, 0, 0, 0, 0,
    0, 0, 0, 0, 0, 0, 0,
    0, 0, 0, 0, 0, 0, 0,
    0, 0, 0, 0, 0, 0, 0,
    0, 0, 0, 0, 0, 0, 0,
    0, 0, 0, 0, 0, 0, 0,
    0, 0, 0, 0, 0, 0, 0,
    0, 0, 0, 0, 0, 0, 0,
    0, 0, 0, 0, 0, 0, 0,
    0, 0, 0, 0, 0, 0, 0,
    0, 0, 0, 0, 0, 0, 0,
    0, 0, 0, 0, 0, 0, 0,
    0, 0, 0, 0, 0, 0, 0,
    0, 0, 0, 0, 0, 0, 0,
    0, 0, 0, 0, 0, 0, 0,
    0, 0, 0, 0, 0, 0, 0,
    0, 0, 0, 0, 0, 0, 0,
    0, 0, 0, 0, 0, 0, 0,
    0, 0, 0, 0, 0, 0, 0,
    0, 0, 0, 0, 0, 0, 0,
    0, 0, 0, 0, 0, 0, 0,
    0, 0, 0, 0, 0, 0, 0,
    0, 0, 0, 0, 0, 0, 0,
    0, 0, 0, 0, 0, 0, 0,
    0, 0, 0, 0, 0, 0, 0,
    0, 0, 0, 0, 0, 0, 0,
    0, 0, 0, 0, 0, 0, 0,
    0, 0, 0, 0, 0, 0, 0,
    0, 0, 0, 0, 0, 0, 0,
    0, 0, 0, 0, 0, 0, 0,
    0, 0, 0, 0, 0, 0, 0,
    0, 0, 0, 0, 0, 0, 0,
    0, 0, 0, 0, 0, 0, 0,
    0, 0, 0, 0, 0, 0, 0,
    0, 0, 0, 0, 0, 0, 0,

  % k = 3
    0, 0, 0, 0, 0, 0, 0,
    0, 0, 0, 0, 0, 0, 0,
    0, 0, 0, 0, 0, 0, 0,
    0, 0, 0, 0, 0, 0, 0,
    0, 0, 0, 0, 0, 0, 0,
    0, 0, 0, 0, 0, 0, 0,
    0, 0, 0, 0, 0, 0, 0,
    0, 0, 0, 0, 0, 0, 0,
    0, 0, 0, 0, 0, 0, 0,
    0, 0, 0, 0, 0, 0, 0,
    0, 0, 0, 0, 0, 0, 0,
    0, 0, 0, 0, 0, 0, 0,
    0, 0, 0, 0, 0, 0, 0,
    0, 0, 0, 0, 0, 0, 0,
    0, 0, 0, 0, 0, 0, 0,
    0, 0, 0, 0, 0, 0, 0,
    0, 0, 0, 0, 0, 0, 0,
    0, 0, 0, 0, 0, 0, 0,
    0, 0, 0, 0, 0, 0, 0,
    0, 0, 0, 0, 0, 0, 0,
    0, 0, 0, 0, 0, 0, 0,
    0, 0, 0, 0, 0, 0, 0,
    0, 0, 0, 0, 0, 0, 0,
    0, 0, 0, 0, 0, 0, 0,
    0, 0, 0, 0, 0, 0, 0,
    0, 0, 0, 0, 0, 0, 0,
    0, 0, 0, 0, 0, 0, 0,
    0, 0, 0, 0, 0, 0, 0,
    0, 0, 0, 0, 0, 0, 0,
    0, 0, 0, 0, 0, 0, 0,
    0, 0, 0, 0, 0, 0, 0,
    0, 0, 0, 0, 0, 0, 0,
    0, 0, 0, 0, 0, 0, 0,
    0, 0, 0, 0, 0, 0, 0,
    0, 0, 0, 0, 0, 0, 0,
    0, 0, 0, 0, 0, 0, 0,
    0, 0, 0, 0, 0, 0, 0,
    0, 0, 0, 0, 0, 0, 0,
    0, 0, 0, 0, 0, 0, 0,
    0, 0, 0, 0, 0, 0, 0,
    0, 0, 0, 0, 0, 0, 0,
    0, 0, 0, 0, 0, 0, 0,
    0, 0, 0, 0, 0, 0, 0,
    0, 0, 0, 0, 0, 0, 0,
    0, 0, 0, 0, 0, 0, 0,
    0, 0, 0, 0, 0, 0, 0,
    0, 0, 0, 0, 0, 0, 0,
    0, 0, 0, 0, 0, 0, 0,
    0, 0, 0, 0, 0, 0, 0,
    0, 0, 0, 0, 0, 0, 0,
    0, 0, 0, 0, 0, 0, 0,
    0, 0, 0, 0, 0, 0, 0,
    0, 0, 0, 0, 0, 0, 0,
    0, 0, 0, 0, 0, 0, 0,
    0, 0, 0, 0, 0, 0, 0,
    0, 0, 0, 0, 0, 0, 0,
    0, 0, 0, 0, 0, 0, 0,
    0, 0, 0, 0, 0, 0, 0,

  % k = 4
    0, 0, 0, 0, 0, 0, 0,
    0, 0, 0, 0, 0, 0, 0,
    0, 0, 0, 0, 0, 0, 0,
    0, 0, 0, 0, 0, 0, 0,
    0, 0, 0, 0, 0, 0, 0,
    0, 0, 0, 0, 0, 0, 0,
    0, 0, 0, 0, 0, 0, 0,
    0, 0, 0, 0, 0, 0, 0,
    0, 0, 0, 0, 0, 0, 0,
    0, 0, 0, 0, 0, 0, 0,
    0, 0, 0, 0, 0, 0, 0,
    0, 0, 0, 0, 0, 0, 0,
    0, 0, 0, 0, 0, 0, 0,
    0, 0, 0, 0, 0, 0, 0,
    0, 0, 0, 0, 0, 0, 0,
    0, 0, 0, 0, 0, 0, 0,
    0, 0, 0, 0, 0, 0, 0,
    0, 0, 0, 0, 0, 0, 0,
    0, 0, 0, 0, 0, 0, 0,
    0, 0, 0, 0, 0, 0, 0,
    0, 0, 0, 0, 0, 0, 0,
    0, 0, 0, 0, 0, 0, 0,
    0, 0, 0, 0, 0, 0, 0,
    0, 0, 0, 0, 0, 0, 0,
    0, 0, 0, 0, 0, 0, 0,
    0, 0, 0, 0, 0, 0, 0,
    0, 0, 0, 0, 0, 0, 0,
    0, 0, 0, 0, 0, 0, 0,
    0, 0, 0, 0, 0, 0, 0,
    0, 0, 0, 0, 0, 0, 0,
    0, 0, 0, 0, 0, 0, 0,
    0, 0, 0, 0, 0, 0, 0,
    0, 0, 0, 0, 0, 0, 0,
    0, 0, 0, 0, 0, 0, 0,
    0, 0, 0, 0, 0, 0, 0,
    0, 0, 0, 0, 0, 0, 0,
    0, 0, 0, 0, 0, 0, 0,
    0, 0, 0, 0, 0, 0, 0,
    0, 0, 0, 0, 0, 0, 0,
    0, 0, 0, 0, 0, 0, 0,
    0, 0, 0, 0, 0, 0, 0,
    0, 0, 0, 0, 0, 0, 0,
    0, 0, 0, 0, 0, 0, 0,
    0, 0, 0, 0, 0, 0, 0,
    0, 0, 0, 0, 0, 0, 0,
    0, 0, 0, 0, 0, 0, 0,
    0, 0, 0, 0, 0, 0, 0,
    0, 0, 0, 0, 0, 0, 0,
    0, 0, 0, 0, 0, 0, 0,
    0, 0, 0, 0, 0, 0, 0,
    0, 0, 0, 0, 0, 0, 0,
    0, 0, 0, 0, 0, 0, 0,
    0, 0, 0, 0, 0, 0, 0,
    0, 0, 0, 0, 0, 0, 0,
    0, 0, 0, 0, 0, 0, 0,
    0, 0, 0, 0, 0, 0, 0,
    0, 0, 0, 0, 0, 0, 0,
    0, 0, 0, 0, 0, 0, 0,

  % k = 5
    0, 0, 0, 0, 0, 0, 0,
    0, 0, 0, 0, 0, 0, 0,
    0, 0, 0, 0, 0, 0, 0,
    0, 0, 0, 0, 0, 0, 0,
    0, 0, 0, 0, 0, 0, 0,
    0, 0, 0, 0, 0, 0, 0,
    0, 0, 0, 0, 0, 0, 0,
    0, 0, 0, 0, 0, 0, 0,
    0, 0, 0, 0, 0, 0, 0,
    0, 0, 0, 0, 0, 0, 0,
    0, 0, 0, 0, 0, 0, 0,
    0, 0, 0, 0, 0, 0, 0,
    0, 0, 0, 0, 0, 0, 0,
    0, 0, 0, 0, 0, 0, 0,
    0, 0, 0, 0, 0, 0, 0,
    0, 0, 0, 0, 0, 0, 0,
    0, 0, 0, 0, 0, 0, 0,
    0, 0, 0, 0, 0, 0, 0,
    0, 0, 0, 0, 0, 0, 0,
    0, 0, 0, 0, 0, 0, 0,
    0, 0, 0, 0, 0, 0, 0,
    0, 0, 0, 0, 0, 0, 0,
    0, 0, 0, 0, 0, 0, 0,
    0, 0, 0, 0, 0, 0, 0,
    0, 0, 0, 0, 0, 0, 0,
    0, 0, 0, 0, 0, 0, 0,
    0, 0, 0, 0, 0, 0, 0,
    0, 0, 0, 0, 0, 0, 0,
    0, 0, 0, 0, 0, 0, 0,
    0, 0, 0, 0, 0, 0, 0,
    0, 0, 0, 0, 0, 0, 0,
    0, 0, 0, 0, 0, 0, 0,
    0, 0, 0, 0, 0, 0, 0,
    0, 0, 0, 0, 0, 0, 0,
    0, 0, 0, 0, 0, 0, 0,
    0, 0, 0, 0, 0, 0, 0,
    0, 0, 0, 0, 0, 0, 0,
    0, 0, 0, 0, 0, 0, 0,
    0, 0, 0, 0, 0, 0, 0,
    0, 0, 0, 0, 0, 0, 0,
    0, 0, 0, 0, 0, 0, 0,
    0, 0, 0, 0, 0, 0, 0,
    0, 0, 0, 0, 0, 0, 0,
    0, 0, 0, 0, 0, 0, 0,
    0, 0, 0, 0, 0, 0, 0,
    0, 0, 0, 0, 0, 0, 0,
    0, 0, 0, 0, 0, 0, 0,
    0, 0, 0, 0, 0, 0, 0,
    0, 0, 0, 0, 0, 0, 0,
    0, 0, 0, 0, 0, 0, 0,
    0, 0, 0, 0, 0, 0, 0,
    0, 0, 0, 0, 0, 0, 0,
    0, 0, 0, 0, 0, 0, 0,
    0, 0, 0, 0, 0, 0, 0,
    0, 0, 0, 0, 0, 0, 0,
    0, 0, 0, 0, 0, 0, 0,
    0, 0, 0, 0, 0, 0, 0,
    0, 0, 0, 0, 0, 0, 0,

  % k = 6
    0, 0, 0, 0, 0, 0, 0,
    0, 0, 0, 0, 0, 0, 0,
    0, 0, 0, 0, 0, 0, 0,
    0, 0, 0, 0, 0, 0, 0,
    0, 0, 0, 0, 0, 0, 0,
    0, 0, 0, 0, 0, 0, 0,
    0, 0, 0, 0, 0, 0, 0,
    0, 0, 0, 0, 0, 0, 0,
    0, 0, 0, 0, 0, 0, 0,
    0, 0, 0, 0, 0, 0, 0,
    0, 0, 0, 0, 0, 0, 0,
    0, 0, 0, 0, 0, 0, 0,
    0, 0, 0, 0, 0, 0, 0,
    0, 0, 0, 0, 0, 0, 0,
    0, 0, 0, 0, 0, 0, 0,
    0, 0, 0, 0, 0, 0, 0,
    0, 0, 0, 0, 0, 0, 0,
    0, 0, 0, 0, 0, 0, 0,
    0, 0, 0, 0, 0, 0, 0,
    0, 0, 0, 0, 0, 0, 0,
    0, 0, 0, 0, 0, 0, 0,
    0, 0, 0, 0, 0, 0, 0,
    0, 0, 0, 0, 0, 0, 0,
    0, 0, 0, 0, 0, 0, 0,
    0, 0, 0, 0, 0, 0, 0,
    0, 0, 0, 0, 0, 0, 0,
    0, 0, 0, 0, 0, 0, 0,
    0, 0, 0, 0, 0, 0, 0,
    0, 0, 0, 0, 0, 0, 0,
    0, 0, 0, 0, 0, 0, 0,
    0, 0, 0, 0, 0, 0, 0,
    0, 0, 0, 0, 0, 0, 0,
    0, 0, 0, 0, 0, 0, 0,
    0, 0, 0, 0, 0, 0, 0,
    0, 0, 0, 0, 0, 0, 0,
    0, 0, 0, 0, 0, 0, 0,
    0, 0, 0, 0, 0, 0, 0,
    0, 0, 0, 0, 0, 0, 0,
    0, 0, 0, 0, 0, 0, 0,
    0, 0, 0, 0, 0, 0, 0,
    0, 0, 0, 0, 0, 0, 0,
    0, 0, 0, 0, 0, 0, 0,
    0, 0, 0, 0, 0, 0, 0,
    0, 0, 0, 0, 0, 0, 0,
    0, 0, 0, 0, 0, 0, 0,
    0, 0, 0, 0, 0, 0, 0,
    0, 0, 0, 0, 0, 0, 0,
    0, 0, 0, 0, 0, 0, 0,
    0, 0, 0, 0, 0, 0, 0,
    0, 0, 0, 0, 0, 0, 0,
    0, 0, 0, 0, 0, 0, 0,
    0, 0, 0, 0, 0, 0, 0,
    0, 0, 0, 0, 0, 0, 0,
    0, 0, 0, 0, 0, 0, 0,
    0, 0, 0, 0, 0, 0, 0,
    0, 0, 0, 0, 0, 0, 0,
    0, 0, 0, 0, 0, 0, 0,
    0, 0, 0, 0, 0, 0, 0
]);
d_nfa = array3d(1..6, 1..58, 1..7, [
  % k = 1
    {3, 10, 12, 17}, {2, 9, 11, 16}, {2, 9, 11, 16}, {2, 9, 11, 16}, {2, 9, 11, 16}, {2, 9, 11, 16}, {2, 9, 11, 16},
    {3}, {2}, {2}, {2}, {2}, {2}, {2},
    {}, {4}, {4}, {4}, {4}, {4}, {4},
    {}, {5}, {5}, {5}, {5}, {5}, {5},
    {}, {6}, {6}, {6}, {6}, {6}, {6},
    {7}, {}, {}, {}, {}, {}, {},
    {8}, {}, {}, {}, {}, {}, {},
    {}, {8}, {8}, {8}, {8}, {8}, {8},
    {10}, {9}, {9}, {9}, {9}, {9}, {9},
    {}, {3}, {3}, {3}, {3}, {3}, {3},
    {12}, {11}, {11}, {11}, {11}, {11}, {11},
    {13}, {}, {}, {}, {}, {}, {},
    {}, {14}, {14}, {14}, {14}, {14}, {14},
    {}, {15}, {15}, {15}, {15}, {15}, {15},
    {}, {7}, {7}, {7}, {7}, {7}, {7},
    {17}, {16}, {16}, {16}, {16}, {16}, {16},
    {18}, {}, {}, {}, {}, {}, {},
    {}, {13}, {13}, {13}, {13}, {13}, {13},
    {}, {}, {}, {}, {}, {}, {},
    {}, {}, {}, {}, {}, {}, {},
    {}, {}, {}, {}, {}, {}, {},
    {}, {}, {}, {}, {}, {}, {},
    {}, {}, {}, {}, {}, {}, {},
    {}, {}, {}, {}, {}, {}, {},
    {}, {}, {}, {}, {}, {}, {},
    {}, {}, {}, {}, {}, {}, {},
    {}, {}, {}, {}, {}, {}, {},
    {}, {}, {}, {}, {}, {}, {},
    {}, {}, {}, {}, {}, {}, {},
    {}, {}, {}, {}, {}, {}, {},
    {}, {}, {}, {}, {}, {}, {},
    {}, {}, {}, {}, {}, {}, {},
    {}, {}, {}, {}, {}, {}, {},
    {}, {}, {}, {}, {}, {}, {},
    {}, {}, {}, {}, {}, {}, {},
    {}, {}, {}, {}, {}, {}, {},
    {}, {}, {}, {}, {}, {}, {},
    {}, {}, {}, {}, {}, {}, {},
    {}, {}, {}, {}, {}, {}, {},
    {}, {}, {}, {}, {}, {}, {},
    {}, {}, {}, {}, {}, {}, {},
    {}, {}, {}, {}, {}, {}, {},
    {}, {}, {}, {}, {}, {}, {},
    {}, {}, {}, {}, {}, {}, {},
    {}, {}, {}, {}, {}, {}, {},
    {}, {}, {}, {}, {}, {}, {},
    {}, {}, {}, {}, {}, {}, {},
    {}, {}, {}, {}, {}, {}, {},
    {}, {}, {}, {}, {}, {}, {},
    {}, {}, {}, {}, {}, {}, {},
    {}, {}, {}, {}, {}, {}, {},
    {}, {}, {}, {}, {}, {}, {},
    {}, {}, {}, {}, {}, {}, {},
    {}, {}, {}, {}, {}, {}, {},
    {}, {}, {}, {}, {}, {}, {},
    {}, {}, {}, {}, {}, {}, {},
    {}, {}, {}, {}, {}, {}, {},
    {}, {}, {}, {}, {}, {}, {},

  % k = 2
    {1}, {2}, {1}, {1}, {1}, {1}, {1},
    {2}, {}, {2}, {2}, {2}, {2}, {2},
    {}, {}, {}, {}, {}, {}, {},
    {}, {}, {}, {}, {}, {}, {},
    {}, {}, {}, {}, {}, {}, {},
    {}, {}, {}, {}, {}, {}, {},
    {}, {}, {}, {}, {}, {}, {},
    {}, {}, {}, {}, {}, {}, {},
    {}, {}, {}, {}, {}, {}, {},
    {}, {}, {}, {}, {}, {}, {},
    {}, {}, {}, {}, {}, {}, {},
    {}, {}, {}, {}, {}, {}, {},
    {}, {}, {}, {}, {}, {}, {},
    {}, {}, {}, {}, {}, {}, {},
    {}, {}, {}, {}, {}, {}, {},
    {}, {}, {}, {}, {}, {}, {},
    {}, {}, {}, {}, {}, {}, {},
    {}, {}, {}, {}, {}, {}, {},
    {}, {}, {}, {}, {}, {}, {},
    {}, {}, {}, {}, {}, {}, {},
    {}, {}, {}, {}, {}, {}, {},
    {}, {}, {}, {}, {}, {}, {},
    {}, {}, {}, {}, {}, {}, {},
    {}, {}, {}, {}, {}, {}, {},
    {}, {}, {}, {}, {}, {}, {},
    {}, {}, {}, {}, {}, {}, {},
    {}, {}, {}, {}, {}, {}, {},
    {}, {}, {}, {}, {}, {}, {},
    {}, {}, {}, {}, {}, {}, {},
    {}, {}, {}, {}, {}, {}, {},
    {}, {}, {}, {}, {}, {}, {},
    {}, {}, {}, {}, {}, {}, {},
    {}, {}, {}, {}, {}, {}, {},
    {}, {}, {}, {}, {}, {}, {},
    {}, {}, {}, {}, {}, {}, {},
    {}, {}, {}, {}, {}, {}, {},
    {}, {}, {}, {}, {}, {}, {},
    {}, {}, {}, {}, {}, {}, {},
    {}, {}, {}, {}, {}, {}, {},
    {}, {}, {}, {}, {}, {}, {},
    {}, {}, {}, {}, {}, {}, {},
    {}, {}, {}, {}, {}, {}, {},
    {}, {}, {}, {}, {}, {}, {},
    {}, {}, {}, {}, {}, {}, {},
    {}, {}, {}, {}, {}, {}, {},
    {}, {}, {}, {}, {}, {}, {},
    {}, {}, {}, {}, {}, {}, {},
    {}, {}, {}, {}, {}, {}, {},
    {}, {}, {}, {}, {}, {}, {},
    {}, {}, {}, {}, {}, {}, {},
    {}, {}, {}, {}, {}, {}, {},
    {}, {}, {}, {}, {}, {}, {},
    {}, {}, {}, {}, {}, {}, {},
    {}, {}, {}, {}, {}, {}, {},
    {}, {}, {}, {}, {}, {}, {},
    {}, {}, {}, {}, {}, {}, {},
    {}, {}, {}, {}, {}, {}, {},
    {}, {}, {}, {}, {}, {}, {},

  % k = 3
    {2, 9}, {2, 9}, {3, 7}, {2, 9}, {2, 9}, {2, 9}, {2, 9},
    {2}, {2}, {3}, {2}, {2}, {2}, {2},
    {4}, {4}, {}, {4}, {4}, {4}, {4},
    {5}, {5}, {}, {5}, {5}, {5}, {5},
    {6}, {6}, {}, {6}, {6}, {6}, {6},
    {7}, {7}, {}, {7}, {7}, {7}, {7},
    {}, {}, {8}, {}, {}, {}, {},
    {8}, {8}, {}, {8}, {8}, {8}, {8},
    {9}, {9}, {7}, {9}, {9}, {9}, {9},
    {}, {}, {}, {}, {}, {}, {},
    {}, {}, {}, {}, {}, {}, {},
    {}, {}, {}, {}, {}, {}, {},
    {}, {}, {}, {}, {}, {}, {},
    {}, {}, {}, {}, {}, {}, {},
    {}, {}, {}, {}, {}, {}, {},
    {}, {}, {}, {}, {}, {}, {},
    {}, {}, {}, {}, {}, {}, {},
    {}, {}, {}, {}, {}, {}, {},
    {}, {}, {}, {}, {}, {}, {},
    {}, {}, {}, {}, {}, {}, {},
    {}, {}, {}, {}, {}, {}, {},
    {}, {}, {}, {}, {}, {}, {},
    {}, {}, {}, {}, {}, {}, {},
    {}, {}, {}, {}, {}, {}, {},
    {}, {}, {}, {}, {}, {}, {},
    {}, {}, {}, {}, {}, {}, {},
    {}, {}, {}, {}, {}, {}, {},
    {}, {}, {}, {}, {}, {}, {},
    {}, {}, {}, {}, {}, {}, {},
    {}, {}, {}, {}, {}, {}, {},
    {}, {}, {}, {}, {}, {}, {},
    {}, {}, {}, {}, {}, {}, {},
    {}, {}, {}, {}, {}, {}, {},
    {}, {}, {}, {}, {}, {}, {},
    {}, {}, {}, {}, {}, {}, {},
    {}, {}, {}, {}, {}, {}, {},
    {}, {}, {}, {}, {}, {}, {},
    {}, {}, {}, {}, {}, {}, {},
    {}, {}, {}, {}, {}, {}, {},
    {}, {}, {}, {}, {}, {}, {},
    {}, {}, {}, {}, {}, {}, {},
    {}, {}, {}, {}, {}, {}, {},
    {}, {}, {}, {}, {}, {}, {},
    {}, {}, {}, {}, {}, {}, {},
    {}, {}, {}, {}, {}, {}, {},
    {}, {}, {}, {}, {}, {}, {},
    {}, {}, {}, {}, {}, {}, {},
    {}, {}, {}, {}, {}, {}, {},
    {}, {}, {}, {}, {}, {}, {},
    {}, {}, {}, {}, {}, {}, {},
    {}, {}, {}, {}, {}, {}, {},
    {}, {}, {}, {}, {}, {}, {},
    {}, {}, {}, {}, {}, {}, {},
    {}, {}, {}, {}, {}, {}, {},
    {}, {}, {}, {}, {}, {}, {},
    {}, {}, {}, {}, {}, {}, {},
    {}, {}, {}, {}, {}, {}, {},
    {}, {}, {}, {}, {}, {}, {},

  % k = 4
    {2, 19}, {2, 19}, {2, 19}, {3, 20}, {2, 19}, {2, 19}, {2, 19},
    {2}, {2}, {2}, {3}, {2}, {2}, {2},
    {4}, {4}, {4}, {}, {4}, {4}, {4},
    {5}, {5}, {5}, {}, {5}, {5}, {5},
    {6}, {6}, {6}, {}, {6}, {6}, {6},
    {7}, {7}, {7}, {}, {7}, {7}, {7},
    {}, {}, {}, {8}, {}, {}, {},
    {9}, {9}, {9}, {}, {9}, {9}, {9},
    {10}, {10}, {10}, {}, {10}, {10}, {10},
    {11}, {11}, {11}, {}, {11}, {11}, {11},
    {12}, {12}, {12}, {}, {12}, {12}, {12},
    {}, {}, {}, {13}, {}, {}, {},
    {14}, {14}, {14}, {}, {14}, {14}, {14},
    {15}, {15}, {15}, {}, {15}, {15}, {15},
    {16}, {16}, {16}, {}, {16}, {16}, {16},
    {17}, {17}, {17}, {}, {17}, {17}, {17},
    {}, {}, {}, {18}, {}, {}, {},
    {18}, {18}, {18}, {}, {18}, {18}, {18},
    {19}, {19}, {19}, {20}, {19}, {19}, {19},
    {}, {}, {}, {21}, {}, {}, {},
    {}, {}, {}, {17}, {}, {}, {},
    {}, {}, {}, {}, {}, {}, {},
    {}, {}, {}, {}, {}, {}, {},
    {}, {}, {}, {}, {}, {}, {},
    {}, {}, {}, {}, {}, {}, {},
    {}, {}, {}, {}, {}, {}, {},
    {}, {}, {}, {}, {}, {}, {},
    {}, {}, {}, {}, {}, {}, {},
    {}, {}, {}, {}, {}, {}, {},
    {}, {}, {}, {}, {}, {}, {},
    {}, {}, {}, {}, {}, {}, {},
    {}, {}, {}, {}, {}, {}, {},
    {}, {}, {}, {}, {}, {}, {},
    {}, {}, {}, {}, {}, {}, {},
    {}, {}, {}, {}, {}, {}, {},
    {}, {}, {}, {}, {}, {}, {},
    {}, {}, {}, {}, {}, {}, {},
    {}, {}, {}, {}, {}, {}, {},
    {}, {}, {}, {}, {}, {}, {},
    {}, {}, {}, {}, {}, {}, {},
    {}, {}, {}, {}, {}, {}, {},
    {}, {}, {}, {}, {}, {}, {},
    {}, {}, {}, {}, {}, {}, {},
    {}, {}, {}, {}, {}, {}, {},
    {}, {}, {}, {}, {}, {}, {},
    {}, {}, {}, {}, {}, {}, {},
    {}, {}, {}, {}, {}, {}, {},
    {}, {}, {}, {}, {}, {}, {},
    {}, {}, {}, {}, {}, {}, {},
    {}, {}, {}, {}, {}, {}, {},
    {}, {}, {}, {}, {}, {}, {},
    {}, {}, {}, {}, {}, {}, {},
    {}, {}, {}, {}, {}, {}, {},
    {}, {}, {}, {}, {}, {}, {},
    {}, {}, {}, {}, {}, {}, {},
    {}, {}, {}, {}, {}, {}, {},
    {}, {}, {}, {}, {}, {}, {},
    {}, {}, {}, {}, {}, {}, {},

  % k = 5
    {2, 14, 19, 29, 37, 43, 50, 58}, {2, 14, 19, 29, 37, 43, 50, 58}, {2, 14, 19, 29, 37, 43, 50, 58}, {2, 14, 19, 29, 37, 43, 50, 58}, {3, 15, 20, 30, 32, 38, 44, 51}, {2, 14, 19, 29, 37, 43, 50, 58}, {2, 14, 19, 29, 37, 43, 50, 58},
    {2}, {2}, {2}, {2}, {3}, {2}, {2},
    {}, {}, {}, {}, {4}, {}, {},
    {5}, {5}, {5}, {5}, {}, {5}, {5},
    {6}, {6}, {6}, {6}, {}, {6}, {6},
    {}, {}, {}, {}, {7}, {}, {},
    {}, {}, {}, {}, {8}, {}, {},
    {9}, {9}, {9}, {9}, {}, {9}, {9},
    {10}, {10}, {10}, {10}, {}, {10}, {10},
    {11}, {11}, {11}, {11}, {}, {11}, {11},
    {12}, {12}, {12}, {12}, {}, {12}, {12},
    {}, {}, {}, {}, {13}, {}, {},
    {13}, {13}, {13}, {13}, {}, {13}, {13},
    {14}, {14}, {14}, {14}, {15}, {14}, {14},
    {16}, {16}, {16}, {16}, {}, {16}, {16},
    {17}, {17}, {17}, {17}, {}, {17}, {17},
    {18}, {18}, {18}, {18}, {}, {18}, {18},
    {}, {}, {}, {}, {6}, {}, {},
    {19}, {19}, {19}, {19}, {20}, {19}, {19},
    {21}, {21}, {21}, {21}, {}, {21}, {21},
    {22}, {22}, {22}, {22}, {}, {22}, {22},
    {23}, {23}, {23}, {23}, {}, {23}, {23},
    {24}, {24}, {24}, {24}, {}, {24}, {24},
    {}, {}, {}, {}, {25}, {}, {},
    {}, {}, {}, {}, {26}, {}, {},
    {27}, {27}, {27}, {27}, {}, {27}, {27},
    {28}, {28}, {28}, {28}, {}, {28}, {28},
    {}, {}, {}, {}, {12}, {}, {},
    {29}, {29}, {29}, {29}, {30}, {29}, {29},
    {31}, {31}, {31}, {31}, {}, {31}, {31},
    {32}, {32}, {32}, {32}, {}, {32}, {32},
    {33}, {33}, {33}, {33}, {}, {33}, {33},
    {34}, {34}, {34}, {34}, {}, {34}, {34},
    {}, {}, {}, {}, {35}, {}, {},
    {}, {}, {}, {}, {36}, {}, {},
    {}, {}, {}, {}, {9}, {}, {},
    {37}, {37}, {37}, {37}, {38}, {37}, {37},
    {}, {}, {}, {}, {39}, {}, {},
    {40}, {40}, {40}, {40}, {}, {40}, {40},
    {41}, {41}, {41}, {41}, {}, {41}, {41},
    {42}, {42}, {42}, {42}, {}, {42}, {42},
    {35}, {35}, {35}, {35}, {}, {35}, {35},
    {43}, {43}, {43}, {43}, {44}, {43}, {43},
    {45}, {45}, {45}, {45}, {}, {45}, {45},
    {46}, {46}, {46}, {46}, {}, {46}, {46},
    {47}, {47}, {47}, {47}, {}, {47}, {47},
    {}, {}, {}, {}, {48}, {}, {},
    {}, {}, {}, {}, {49}, {}, {},
    {}, {}, {}, {}, {10}, {}, {},
    {50}, {50}, {50}, {50}, {51}, {50}, {50},
    {52}, {52}, {52}, {52}, {}, {52}, {52},
    {53}, {53}, {53}, {53}, {}, {53}, {53},
    {54}, {54}, {54}, {54}, {}, {54}, {54},
    {}, {}, {}, {}, {55}, {}, {},
    {}, {}, {}, {}, {56}, {}, {},
    {57}, {57}, {57}, {57}, {}, {57}, {57},
    {26}, {26}, {26}, {26}, {}, {26}, {26},
    {58}, {58}, {58}, {58}, {32}, {58}, {58},

  % k = 6
    {1}, {1}, {1}, {1}, {1}, {2}, {1},
    {2}, {2}, {2}, {2}, {2}, {}, {2},
    {}, {}, {}, {}, {}, {}, {},
    {}, {}, {}, {}, {}, {}, {},
    {}, {}, {}, {}, {}, {}, {},
    {}, {}, {}, {}, {}, {}, {},
    {}, {}, {}, {}, {}, {}, {},
    {}, {}, {}, {}, {}, {}, {},
    {}, {}, {}, {}, {}, {}, {},
    {}, {}, {}, {}, {}, {}, {},
    {}, {}, {}, {}, {}, {}, {},
    {}, {}, {}, {}, {}, {}, {},
    {}, {}, {}, {}, {}, {}, {},
    {}, {}, {}, {}, {}, {}, {},
    {}, {}, {}, {}, {}, {}, {},
    {}, {}, {}, {}, {}, {}, {},
    {}, {}, {}, {}, {}, {}, {},
    {}, {}, {}, {}, {}, {}, {},
    {}, {}, {}, {}, {}, {}, {},
    {}, {}, {}, {}, {}, {}, {},
    {}, {}, {}, {}, {}, {}, {},
    {}, {}, {}, {}, {}, {}, {},
    {}, {}, {}, {}, {}, {}, {},
    {}, {}, {}, {}, {}, {}, {},
    {}, {}, {}, {}, {}, {}, {},
    {}, {}, {}, {}, {}, {}, {},
    {}, {}, {}, {}, {}, {}, {},
    {}, {}, {}, {}, {}, {}, {},
    {}, {}, {}, {}, {}, {}, {},
    {}, {}, {}, {}, {}, {}, {},
    {}, {}, {}, {}, {}, {}, {},
    {}, {}, {}, {}, {}, {}, {},
    {}, {}, {}, {}, {}, {}, {},
    {}, {}, {}, {}, {}, {}, {},
    {}, {}, {}, {}, {}, {}, {},
    {}, {}, {}, {}, {}, {}, {},
    {}, {}, {}, {}, {}, {}, {},
    {}, {}, {}, {}, {}, {}, {},
    {}, {}, {}, {}, {}, {}, {},
    {}, {}, {}, {}, {}, {}, {},
    {}, {}, {}, {}, {}, {}, {},
    {}, {}, {}, {}, {}, {}, {},
    {}, {}, {}, {}, {}, {}, {},
    {}, {}, {}, {}, {}, {}, {},
    {}, {}, {}, {}, {}, {}, {},
    {}, {}, {}, {}, {}, {}, {},
    {}, {}, {}, {}, {}, {}, {},
    {}, {}, {}, {}, {}, {}, {},
    {}, {}, {}, {}, {}, {}, {},
    {}, {}, {}, {}, {}, {}, {},
    {}, {}, {}, {}, {}, {}, {},
    {}, {}, {}, {}, {}, {}, {},
    {}, {}, {}, {}, {}, {}, {},
    {}, {}, {}, {}, {}, {}, {},
    {}, {}, {}, {}, {}, {}, {},
    {}, {}, {}, {}, {}, {}, {},
    {}, {}, {}, {}, {}, {}, {},
    {}, {}, {}, {}, {}, {}, {}
]);
